
;this file is automatically generated: Fri Oct 30 17:04:06 CST 2020

;declarations generated

(declare-fun oclExcludes ( Int Int) Bool)
(declare-fun Cardinality ( Int) Int)
(declare-fun type_466c2771_bc02_47da_9981_84a6e3b48f30_Class49 ( Int) Bool)
(declare-fun type_466c2771_bc02_47da_9981_84a6e3b48f30_Class48 ( Int) Bool)
(declare-fun type_466c2771_bc02_47da_9981_84a6e3b48f30_Class41 ( Int) Bool)
(declare-fun type_466c2771_bc02_47da_9981_84a6e3b48f30_Class40 ( Int) Bool)
(declare-fun type_466c2771_bc02_47da_9981_84a6e3b48f30_Class43 ( Int) Bool)
(declare-fun type_466c2771_bc02_47da_9981_84a6e3b48f30_Class42 ( Int) Bool)
(declare-fun type_466c2771_bc02_47da_9981_84a6e3b48f30_Class45 ( Int) Bool)
(declare-fun type_466c2771_bc02_47da_9981_84a6e3b48f30_Class44 ( Int) Bool)
(declare-fun type_466c2771_bc02_47da_9981_84a6e3b48f30_Class47 ( Int) Bool)
(declare-fun type_466c2771_bc02_47da_9981_84a6e3b48f30_Class46 ( Int) Bool)
(declare-fun type_466c2771_bc02_47da_9981_84a6e3b48f30_Class38 ( Int) Bool)
(declare-fun type_466c2771_bc02_47da_9981_84a6e3b48f30_Class37 ( Int) Bool)
(declare-fun type_466c2771_bc02_47da_9981_84a6e3b48f30_Class39 ( Int) Bool)
(declare-fun type_466c2771_bc02_47da_9981_84a6e3b48f30_Class30 ( Int) Bool)
(declare-fun type_466c2771_bc02_47da_9981_84a6e3b48f30_Class32 ( Int) Bool)
(declare-fun type_466c2771_bc02_47da_9981_84a6e3b48f30_Class31 ( Int) Bool)
(declare-fun type_466c2771_bc02_47da_9981_84a6e3b48f30_Class34 ( Int) Bool)
(declare-fun type_466c2771_bc02_47da_9981_84a6e3b48f30_Class33 ( Int) Bool)
(declare-fun type_466c2771_bc02_47da_9981_84a6e3b48f30_Class36 ( Int) Bool)
(declare-fun type_466c2771_bc02_47da_9981_84a6e3b48f30_Class35 ( Int) Bool)
(declare-fun type_466c2771_bc02_47da_9981_84a6e3b48f30_Class27 ( Int) Bool)
(declare-fun type_466c2771_bc02_47da_9981_84a6e3b48f30_Class26 ( Int) Bool)
(declare-fun type_466c2771_bc02_47da_9981_84a6e3b48f30_Class29 ( Int) Bool)
(declare-fun type_466c2771_bc02_47da_9981_84a6e3b48f30_Class28 ( Int) Bool)
(declare-fun type_466c2771_bc02_47da_9981_84a6e3b48f30_Class21 ( Int) Bool)
(declare-fun type_466c2771_bc02_47da_9981_84a6e3b48f30_Class20 ( Int) Bool)
(declare-fun type_466c2771_bc02_47da_9981_84a6e3b48f30_Class23 ( Int) Bool)
(declare-fun type_466c2771_bc02_47da_9981_84a6e3b48f30_Class22 ( Int) Bool)
(declare-fun type_466c2771_bc02_47da_9981_84a6e3b48f30_Class25 ( Int) Bool)
(declare-fun type_466c2771_bc02_47da_9981_84a6e3b48f30_Class24 ( Int) Bool)
(declare-fun type_466c2771_bc02_47da_9981_84a6e3b48f30_Class16 ( Int) Bool)
(declare-fun type_466c2771_bc02_47da_9981_84a6e3b48f30_Class15 ( Int) Bool)
(declare-fun type_466c2771_bc02_47da_9981_84a6e3b48f30_Class18 ( Int) Bool)
(declare-fun type_466c2771_bc02_47da_9981_84a6e3b48f30_Class17 ( Int) Bool)
(declare-fun type_466c2771_bc02_47da_9981_84a6e3b48f30_Class19 ( Int) Bool)
(declare-fun type_466c2771_bc02_47da_9981_84a6e3b48f30_Class10 ( Int) Bool)
(declare-fun type_466c2771_bc02_47da_9981_84a6e3b48f30_Class12 ( Int) Bool)
(declare-fun type_466c2771_bc02_47da_9981_84a6e3b48f30_Class11 ( Int) Bool)
(declare-fun type_466c2771_bc02_47da_9981_84a6e3b48f30_Class14 ( Int) Bool)
(declare-fun type_466c2771_bc02_47da_9981_84a6e3b48f30_Class13 ( Int) Bool)
(declare-fun obj_d4622e35_4bd3_4ce4_b001_283ff1bef326 ( Int) Int)
(declare-fun oclSelect ( Int Bool) Int)
(declare-fun type_466c2771_bc02_47da_9981_84a6e3b48f30_Class2 ( Int) Bool)
(declare-fun type_466c2771_bc02_47da_9981_84a6e3b48f30_Class3 ( Int) Bool)
(declare-fun type_466c2771_bc02_47da_9981_84a6e3b48f30_Class0 ( Int) Bool)
(declare-fun type_466c2771_bc02_47da_9981_84a6e3b48f30_Class1 ( Int) Bool)
(declare-fun type_466c2771_bc02_47da_9981_84a6e3b48f30_Class8 ( Int) Bool)
(declare-fun type_466c2771_bc02_47da_9981_84a6e3b48f30_Class9 ( Int) Bool)
(declare-fun type_466c2771_bc02_47da_9981_84a6e3b48f30_Class6 ( Int) Bool)
(declare-fun type_466c2771_bc02_47da_9981_84a6e3b48f30_Class7 ( Int) Bool)
(declare-fun type_466c2771_bc02_47da_9981_84a6e3b48f30_Class4 ( Int) Bool)
(declare-fun type_466c2771_bc02_47da_9981_84a6e3b48f30_Class5 ( Int) Bool)
(declare-fun type_466c2771_bc02_47da_9981_84a6e3b48f30_Class52 ( Int) Bool)
(declare-fun type_466c2771_bc02_47da_9981_84a6e3b48f30_Class51 ( Int) Bool)
(declare-fun type_466c2771_bc02_47da_9981_84a6e3b48f30_Class54 ( Int) Bool)
(declare-fun type_466c2771_bc02_47da_9981_84a6e3b48f30_Class53 ( Int) Bool)
(declare-fun type_466c2771_bc02_47da_9981_84a6e3b48f30_Class55 ( Int) Bool)
(declare-fun type_466c2771_bc02_47da_9981_84a6e3b48f30_Class50 ( Int) Bool)
(declare-fun Enum0 ( Int) Int)
(declare-fun Enum1 ( Int) Int)
(declare-fun Enum2 ( Int) Int)
(declare-fun container_ ( Int) Int)
(declare-fun class6_Class6BoolAttr1 ( Int) Bool)
(declare-fun oclIncludes ( Int Int) Bool)
(declare-fun ObjAt ( Int Int) Int)

;formula(s) generated
(assert (! (forall ((v Int)) (=> ( type_466c2771_bc02_47da_9981_84a6e3b48f30_Class6 v )  (not ( class6_Class6BoolAttr1 ( obj_d4622e35_4bd3_4ce4_b001_283ff1bef326 v )  )  ))):named l0))
(assert (! (exists ((o Int)) ( type_466c2771_bc02_47da_9981_84a6e3b48f30_Class0 ( obj_d4622e35_4bd3_4ce4_b001_283ff1bef326 o )  ) ):named c0))
(assert (! (exists ((o Int)) (and (and (and (and (and ( type_466c2771_bc02_47da_9981_84a6e3b48f30_Class1 ( obj_d4622e35_4bd3_4ce4_b001_283ff1bef326 o )  )  ( type_466c2771_bc02_47da_9981_84a6e3b48f30_Class45 ( obj_d4622e35_4bd3_4ce4_b001_283ff1bef326 o )  ) ) ( type_466c2771_bc02_47da_9981_84a6e3b48f30_Class12 ( obj_d4622e35_4bd3_4ce4_b001_283ff1bef326 o )  ) ) ( type_466c2771_bc02_47da_9981_84a6e3b48f30_Class33 ( obj_d4622e35_4bd3_4ce4_b001_283ff1bef326 o )  ) ) ( type_466c2771_bc02_47da_9981_84a6e3b48f30_Class22 ( obj_d4622e35_4bd3_4ce4_b001_283ff1bef326 o )  ) ) ( type_466c2771_bc02_47da_9981_84a6e3b48f30_Class39 ( obj_d4622e35_4bd3_4ce4_b001_283ff1bef326 o )  ) )):named c1))
(assert (! (exists ((o Int)) (and (and (and (and (and (and (and (and (and ( type_466c2771_bc02_47da_9981_84a6e3b48f30_Class10 ( obj_d4622e35_4bd3_4ce4_b001_283ff1bef326 o )  )  ( type_466c2771_bc02_47da_9981_84a6e3b48f30_Class45 ( obj_d4622e35_4bd3_4ce4_b001_283ff1bef326 o )  ) ) ( type_466c2771_bc02_47da_9981_84a6e3b48f30_Class12 ( obj_d4622e35_4bd3_4ce4_b001_283ff1bef326 o )  ) ) ( type_466c2771_bc02_47da_9981_84a6e3b48f30_Class55 ( obj_d4622e35_4bd3_4ce4_b001_283ff1bef326 o )  ) ) ( type_466c2771_bc02_47da_9981_84a6e3b48f30_Class33 ( obj_d4622e35_4bd3_4ce4_b001_283ff1bef326 o )  ) ) ( type_466c2771_bc02_47da_9981_84a6e3b48f30_Class22 ( obj_d4622e35_4bd3_4ce4_b001_283ff1bef326 o )  ) ) ( type_466c2771_bc02_47da_9981_84a6e3b48f30_Class29 ( obj_d4622e35_4bd3_4ce4_b001_283ff1bef326 o )  ) ) ( type_466c2771_bc02_47da_9981_84a6e3b48f30_Class39 ( obj_d4622e35_4bd3_4ce4_b001_283ff1bef326 o )  ) ) ( type_466c2771_bc02_47da_9981_84a6e3b48f30_Class50 ( obj_d4622e35_4bd3_4ce4_b001_283ff1bef326 o )  ) ) ( type_466c2771_bc02_47da_9981_84a6e3b48f30_Class41 ( obj_d4622e35_4bd3_4ce4_b001_283ff1bef326 o )  ) )):named c2))
(assert (! (exists ((o Int)) ( type_466c2771_bc02_47da_9981_84a6e3b48f30_Class11 ( obj_d4622e35_4bd3_4ce4_b001_283ff1bef326 o )  ) ):named c3))
(assert (! (exists ((o Int)) (and (and (and ( type_466c2771_bc02_47da_9981_84a6e3b48f30_Class12 ( obj_d4622e35_4bd3_4ce4_b001_283ff1bef326 o )  )  ( type_466c2771_bc02_47da_9981_84a6e3b48f30_Class33 ( obj_d4622e35_4bd3_4ce4_b001_283ff1bef326 o )  ) ) ( type_466c2771_bc02_47da_9981_84a6e3b48f30_Class22 ( obj_d4622e35_4bd3_4ce4_b001_283ff1bef326 o )  ) ) ( type_466c2771_bc02_47da_9981_84a6e3b48f30_Class39 ( obj_d4622e35_4bd3_4ce4_b001_283ff1bef326 o )  ) )):named c4))
(assert (! (exists ((o Int)) (and (and (and (and (and (and (and (and (and ( type_466c2771_bc02_47da_9981_84a6e3b48f30_Class13 ( obj_d4622e35_4bd3_4ce4_b001_283ff1bef326 o )  )  ( type_466c2771_bc02_47da_9981_84a6e3b48f30_Class45 ( obj_d4622e35_4bd3_4ce4_b001_283ff1bef326 o )  ) ) ( type_466c2771_bc02_47da_9981_84a6e3b48f30_Class12 ( obj_d4622e35_4bd3_4ce4_b001_283ff1bef326 o )  ) ) ( type_466c2771_bc02_47da_9981_84a6e3b48f30_Class55 ( obj_d4622e35_4bd3_4ce4_b001_283ff1bef326 o )  ) ) ( type_466c2771_bc02_47da_9981_84a6e3b48f30_Class33 ( obj_d4622e35_4bd3_4ce4_b001_283ff1bef326 o )  ) ) ( type_466c2771_bc02_47da_9981_84a6e3b48f30_Class22 ( obj_d4622e35_4bd3_4ce4_b001_283ff1bef326 o )  ) ) ( type_466c2771_bc02_47da_9981_84a6e3b48f30_Class29 ( obj_d4622e35_4bd3_4ce4_b001_283ff1bef326 o )  ) ) ( type_466c2771_bc02_47da_9981_84a6e3b48f30_Class39 ( obj_d4622e35_4bd3_4ce4_b001_283ff1bef326 o )  ) ) ( type_466c2771_bc02_47da_9981_84a6e3b48f30_Class50 ( obj_d4622e35_4bd3_4ce4_b001_283ff1bef326 o )  ) ) ( type_466c2771_bc02_47da_9981_84a6e3b48f30_Class41 ( obj_d4622e35_4bd3_4ce4_b001_283ff1bef326 o )  ) )):named c5))
(assert (! (exists ((o Int)) (and (and (and (and (and (and (and (and (and ( type_466c2771_bc02_47da_9981_84a6e3b48f30_Class14 ( obj_d4622e35_4bd3_4ce4_b001_283ff1bef326 o )  )  ( type_466c2771_bc02_47da_9981_84a6e3b48f30_Class45 ( obj_d4622e35_4bd3_4ce4_b001_283ff1bef326 o )  ) ) ( type_466c2771_bc02_47da_9981_84a6e3b48f30_Class12 ( obj_d4622e35_4bd3_4ce4_b001_283ff1bef326 o )  ) ) ( type_466c2771_bc02_47da_9981_84a6e3b48f30_Class55 ( obj_d4622e35_4bd3_4ce4_b001_283ff1bef326 o )  ) ) ( type_466c2771_bc02_47da_9981_84a6e3b48f30_Class33 ( obj_d4622e35_4bd3_4ce4_b001_283ff1bef326 o )  ) ) ( type_466c2771_bc02_47da_9981_84a6e3b48f30_Class22 ( obj_d4622e35_4bd3_4ce4_b001_283ff1bef326 o )  ) ) ( type_466c2771_bc02_47da_9981_84a6e3b48f30_Class29 ( obj_d4622e35_4bd3_4ce4_b001_283ff1bef326 o )  ) ) ( type_466c2771_bc02_47da_9981_84a6e3b48f30_Class39 ( obj_d4622e35_4bd3_4ce4_b001_283ff1bef326 o )  ) ) ( type_466c2771_bc02_47da_9981_84a6e3b48f30_Class50 ( obj_d4622e35_4bd3_4ce4_b001_283ff1bef326 o )  ) ) ( type_466c2771_bc02_47da_9981_84a6e3b48f30_Class41 ( obj_d4622e35_4bd3_4ce4_b001_283ff1bef326 o )  ) )):named c6))
(assert (! (exists ((o Int)) ( type_466c2771_bc02_47da_9981_84a6e3b48f30_Class15 ( obj_d4622e35_4bd3_4ce4_b001_283ff1bef326 o )  ) ):named c7))
(assert (! (exists ((o Int)) (and (and (and (and (and ( type_466c2771_bc02_47da_9981_84a6e3b48f30_Class16 ( obj_d4622e35_4bd3_4ce4_b001_283ff1bef326 o )  )  ( type_466c2771_bc02_47da_9981_84a6e3b48f30_Class45 ( obj_d4622e35_4bd3_4ce4_b001_283ff1bef326 o )  ) ) ( type_466c2771_bc02_47da_9981_84a6e3b48f30_Class12 ( obj_d4622e35_4bd3_4ce4_b001_283ff1bef326 o )  ) ) ( type_466c2771_bc02_47da_9981_84a6e3b48f30_Class33 ( obj_d4622e35_4bd3_4ce4_b001_283ff1bef326 o )  ) ) ( type_466c2771_bc02_47da_9981_84a6e3b48f30_Class22 ( obj_d4622e35_4bd3_4ce4_b001_283ff1bef326 o )  ) ) ( type_466c2771_bc02_47da_9981_84a6e3b48f30_Class39 ( obj_d4622e35_4bd3_4ce4_b001_283ff1bef326 o )  ) )):named c8))
(assert (! (exists ((o Int)) ( type_466c2771_bc02_47da_9981_84a6e3b48f30_Class17 ( obj_d4622e35_4bd3_4ce4_b001_283ff1bef326 o )  ) ):named c9))
(assert (! (exists ((o Int)) (and (and (and ( type_466c2771_bc02_47da_9981_84a6e3b48f30_Class18 ( obj_d4622e35_4bd3_4ce4_b001_283ff1bef326 o )  )  ( type_466c2771_bc02_47da_9981_84a6e3b48f30_Class25 ( obj_d4622e35_4bd3_4ce4_b001_283ff1bef326 o )  ) ) ( type_466c2771_bc02_47da_9981_84a6e3b48f30_Class24 ( obj_d4622e35_4bd3_4ce4_b001_283ff1bef326 o )  ) ) ( type_466c2771_bc02_47da_9981_84a6e3b48f30_Class39 ( obj_d4622e35_4bd3_4ce4_b001_283ff1bef326 o )  ) )):named c10))
(assert (! (exists ((o Int)) (and (and (and (and (and (and (and (and (and ( type_466c2771_bc02_47da_9981_84a6e3b48f30_Class19 ( obj_d4622e35_4bd3_4ce4_b001_283ff1bef326 o )  )  ( type_466c2771_bc02_47da_9981_84a6e3b48f30_Class45 ( obj_d4622e35_4bd3_4ce4_b001_283ff1bef326 o )  ) ) ( type_466c2771_bc02_47da_9981_84a6e3b48f30_Class12 ( obj_d4622e35_4bd3_4ce4_b001_283ff1bef326 o )  ) ) ( type_466c2771_bc02_47da_9981_84a6e3b48f30_Class55 ( obj_d4622e35_4bd3_4ce4_b001_283ff1bef326 o )  ) ) ( type_466c2771_bc02_47da_9981_84a6e3b48f30_Class33 ( obj_d4622e35_4bd3_4ce4_b001_283ff1bef326 o )  ) ) ( type_466c2771_bc02_47da_9981_84a6e3b48f30_Class22 ( obj_d4622e35_4bd3_4ce4_b001_283ff1bef326 o )  ) ) ( type_466c2771_bc02_47da_9981_84a6e3b48f30_Class29 ( obj_d4622e35_4bd3_4ce4_b001_283ff1bef326 o )  ) ) ( type_466c2771_bc02_47da_9981_84a6e3b48f30_Class39 ( obj_d4622e35_4bd3_4ce4_b001_283ff1bef326 o )  ) ) ( type_466c2771_bc02_47da_9981_84a6e3b48f30_Class50 ( obj_d4622e35_4bd3_4ce4_b001_283ff1bef326 o )  ) ) ( type_466c2771_bc02_47da_9981_84a6e3b48f30_Class41 ( obj_d4622e35_4bd3_4ce4_b001_283ff1bef326 o )  ) )):named c11))
(assert (! (exists ((o Int)) ( type_466c2771_bc02_47da_9981_84a6e3b48f30_Class2 ( obj_d4622e35_4bd3_4ce4_b001_283ff1bef326 o )  ) ):named c12))
(assert (! (exists ((o Int)) ( type_466c2771_bc02_47da_9981_84a6e3b48f30_Class20 ( obj_d4622e35_4bd3_4ce4_b001_283ff1bef326 o )  ) ):named c13))
(assert (! (exists ((o Int)) (and (and (and (and (and (and (and (and (and ( type_466c2771_bc02_47da_9981_84a6e3b48f30_Class21 ( obj_d4622e35_4bd3_4ce4_b001_283ff1bef326 o )  )  ( type_466c2771_bc02_47da_9981_84a6e3b48f30_Class45 ( obj_d4622e35_4bd3_4ce4_b001_283ff1bef326 o )  ) ) ( type_466c2771_bc02_47da_9981_84a6e3b48f30_Class12 ( obj_d4622e35_4bd3_4ce4_b001_283ff1bef326 o )  ) ) ( type_466c2771_bc02_47da_9981_84a6e3b48f30_Class33 ( obj_d4622e35_4bd3_4ce4_b001_283ff1bef326 o )  ) ) ( type_466c2771_bc02_47da_9981_84a6e3b48f30_Class22 ( obj_d4622e35_4bd3_4ce4_b001_283ff1bef326 o )  ) ) ( type_466c2771_bc02_47da_9981_84a6e3b48f30_Class16 ( obj_d4622e35_4bd3_4ce4_b001_283ff1bef326 o )  ) ) ( type_466c2771_bc02_47da_9981_84a6e3b48f30_Class29 ( obj_d4622e35_4bd3_4ce4_b001_283ff1bef326 o )  ) ) ( type_466c2771_bc02_47da_9981_84a6e3b48f30_Class39 ( obj_d4622e35_4bd3_4ce4_b001_283ff1bef326 o )  ) ) ( type_466c2771_bc02_47da_9981_84a6e3b48f30_Class41 ( obj_d4622e35_4bd3_4ce4_b001_283ff1bef326 o )  ) ) ( type_466c2771_bc02_47da_9981_84a6e3b48f30_Class51 ( obj_d4622e35_4bd3_4ce4_b001_283ff1bef326 o )  ) )):named c14))
(assert (! (exists ((o Int)) (and ( type_466c2771_bc02_47da_9981_84a6e3b48f30_Class22 ( obj_d4622e35_4bd3_4ce4_b001_283ff1bef326 o )  )  ( type_466c2771_bc02_47da_9981_84a6e3b48f30_Class39 ( obj_d4622e35_4bd3_4ce4_b001_283ff1bef326 o )  ) )):named c15))
(assert (! (exists ((o Int)) (and (and (and (and ( type_466c2771_bc02_47da_9981_84a6e3b48f30_Class23 ( obj_d4622e35_4bd3_4ce4_b001_283ff1bef326 o )  )  ( type_466c2771_bc02_47da_9981_84a6e3b48f30_Class25 ( obj_d4622e35_4bd3_4ce4_b001_283ff1bef326 o )  ) ) ( type_466c2771_bc02_47da_9981_84a6e3b48f30_Class24 ( obj_d4622e35_4bd3_4ce4_b001_283ff1bef326 o )  ) ) ( type_466c2771_bc02_47da_9981_84a6e3b48f30_Class39 ( obj_d4622e35_4bd3_4ce4_b001_283ff1bef326 o )  ) ) ( type_466c2771_bc02_47da_9981_84a6e3b48f30_Class5 ( obj_d4622e35_4bd3_4ce4_b001_283ff1bef326 o )  ) )):named c16))
(assert (! (exists ((o Int)) (and (and ( type_466c2771_bc02_47da_9981_84a6e3b48f30_Class24 ( obj_d4622e35_4bd3_4ce4_b001_283ff1bef326 o )  )  ( type_466c2771_bc02_47da_9981_84a6e3b48f30_Class25 ( obj_d4622e35_4bd3_4ce4_b001_283ff1bef326 o )  ) ) ( type_466c2771_bc02_47da_9981_84a6e3b48f30_Class39 ( obj_d4622e35_4bd3_4ce4_b001_283ff1bef326 o )  ) )):named c17))
(assert (! (exists ((o Int)) (and ( type_466c2771_bc02_47da_9981_84a6e3b48f30_Class25 ( obj_d4622e35_4bd3_4ce4_b001_283ff1bef326 o )  )  ( type_466c2771_bc02_47da_9981_84a6e3b48f30_Class39 ( obj_d4622e35_4bd3_4ce4_b001_283ff1bef326 o )  ) )):named c18))
(assert (! (exists ((o Int)) ( type_466c2771_bc02_47da_9981_84a6e3b48f30_Class26 ( obj_d4622e35_4bd3_4ce4_b001_283ff1bef326 o )  ) ):named c19))
(assert (! (exists ((o Int)) ( type_466c2771_bc02_47da_9981_84a6e3b48f30_Class27 ( obj_d4622e35_4bd3_4ce4_b001_283ff1bef326 o )  ) ):named c20))
(assert (! (exists ((o Int)) (and (and (and (and (and (and (and ( type_466c2771_bc02_47da_9981_84a6e3b48f30_Class28 ( obj_d4622e35_4bd3_4ce4_b001_283ff1bef326 o )  )  ( type_466c2771_bc02_47da_9981_84a6e3b48f30_Class45 ( obj_d4622e35_4bd3_4ce4_b001_283ff1bef326 o )  ) ) ( type_466c2771_bc02_47da_9981_84a6e3b48f30_Class12 ( obj_d4622e35_4bd3_4ce4_b001_283ff1bef326 o )  ) ) ( type_466c2771_bc02_47da_9981_84a6e3b48f30_Class33 ( obj_d4622e35_4bd3_4ce4_b001_283ff1bef326 o )  ) ) ( type_466c2771_bc02_47da_9981_84a6e3b48f30_Class22 ( obj_d4622e35_4bd3_4ce4_b001_283ff1bef326 o )  ) ) ( type_466c2771_bc02_47da_9981_84a6e3b48f30_Class29 ( obj_d4622e35_4bd3_4ce4_b001_283ff1bef326 o )  ) ) ( type_466c2771_bc02_47da_9981_84a6e3b48f30_Class39 ( obj_d4622e35_4bd3_4ce4_b001_283ff1bef326 o )  ) ) ( type_466c2771_bc02_47da_9981_84a6e3b48f30_Class41 ( obj_d4622e35_4bd3_4ce4_b001_283ff1bef326 o )  ) )):named c21))
(assert (! (exists ((o Int)) (and (and (and (and (and (and ( type_466c2771_bc02_47da_9981_84a6e3b48f30_Class29 ( obj_d4622e35_4bd3_4ce4_b001_283ff1bef326 o )  )  ( type_466c2771_bc02_47da_9981_84a6e3b48f30_Class45 ( obj_d4622e35_4bd3_4ce4_b001_283ff1bef326 o )  ) ) ( type_466c2771_bc02_47da_9981_84a6e3b48f30_Class12 ( obj_d4622e35_4bd3_4ce4_b001_283ff1bef326 o )  ) ) ( type_466c2771_bc02_47da_9981_84a6e3b48f30_Class33 ( obj_d4622e35_4bd3_4ce4_b001_283ff1bef326 o )  ) ) ( type_466c2771_bc02_47da_9981_84a6e3b48f30_Class22 ( obj_d4622e35_4bd3_4ce4_b001_283ff1bef326 o )  ) ) ( type_466c2771_bc02_47da_9981_84a6e3b48f30_Class39 ( obj_d4622e35_4bd3_4ce4_b001_283ff1bef326 o )  ) ) ( type_466c2771_bc02_47da_9981_84a6e3b48f30_Class41 ( obj_d4622e35_4bd3_4ce4_b001_283ff1bef326 o )  ) )):named c22))
(assert (! (exists ((o Int)) (and (and (and ( type_466c2771_bc02_47da_9981_84a6e3b48f30_Class3 ( obj_d4622e35_4bd3_4ce4_b001_283ff1bef326 o )  )  ( type_466c2771_bc02_47da_9981_84a6e3b48f30_Class25 ( obj_d4622e35_4bd3_4ce4_b001_283ff1bef326 o )  ) ) ( type_466c2771_bc02_47da_9981_84a6e3b48f30_Class24 ( obj_d4622e35_4bd3_4ce4_b001_283ff1bef326 o )  ) ) ( type_466c2771_bc02_47da_9981_84a6e3b48f30_Class39 ( obj_d4622e35_4bd3_4ce4_b001_283ff1bef326 o )  ) )):named c23))
(assert (! (exists ((o Int)) (and ( type_466c2771_bc02_47da_9981_84a6e3b48f30_Class30 ( obj_d4622e35_4bd3_4ce4_b001_283ff1bef326 o )  )  ( type_466c2771_bc02_47da_9981_84a6e3b48f30_Class39 ( obj_d4622e35_4bd3_4ce4_b001_283ff1bef326 o )  ) )):named c24))
(assert (! (exists ((o Int)) (and (and (and (and (and ( type_466c2771_bc02_47da_9981_84a6e3b48f30_Class31 ( obj_d4622e35_4bd3_4ce4_b001_283ff1bef326 o )  )  ( type_466c2771_bc02_47da_9981_84a6e3b48f30_Class45 ( obj_d4622e35_4bd3_4ce4_b001_283ff1bef326 o )  ) ) ( type_466c2771_bc02_47da_9981_84a6e3b48f30_Class12 ( obj_d4622e35_4bd3_4ce4_b001_283ff1bef326 o )  ) ) ( type_466c2771_bc02_47da_9981_84a6e3b48f30_Class33 ( obj_d4622e35_4bd3_4ce4_b001_283ff1bef326 o )  ) ) ( type_466c2771_bc02_47da_9981_84a6e3b48f30_Class22 ( obj_d4622e35_4bd3_4ce4_b001_283ff1bef326 o )  ) ) ( type_466c2771_bc02_47da_9981_84a6e3b48f30_Class39 ( obj_d4622e35_4bd3_4ce4_b001_283ff1bef326 o )  ) )):named c25))
(assert (! (exists ((o Int)) ( type_466c2771_bc02_47da_9981_84a6e3b48f30_Class32 ( obj_d4622e35_4bd3_4ce4_b001_283ff1bef326 o )  ) ):named c26))
(assert (! (exists ((o Int)) (and (and ( type_466c2771_bc02_47da_9981_84a6e3b48f30_Class33 ( obj_d4622e35_4bd3_4ce4_b001_283ff1bef326 o )  )  ( type_466c2771_bc02_47da_9981_84a6e3b48f30_Class22 ( obj_d4622e35_4bd3_4ce4_b001_283ff1bef326 o )  ) ) ( type_466c2771_bc02_47da_9981_84a6e3b48f30_Class39 ( obj_d4622e35_4bd3_4ce4_b001_283ff1bef326 o )  ) )):named c27))
(assert (! (exists ((o Int)) (and (and (and ( type_466c2771_bc02_47da_9981_84a6e3b48f30_Class34 ( obj_d4622e35_4bd3_4ce4_b001_283ff1bef326 o )  )  ( type_466c2771_bc02_47da_9981_84a6e3b48f30_Class25 ( obj_d4622e35_4bd3_4ce4_b001_283ff1bef326 o )  ) ) ( type_466c2771_bc02_47da_9981_84a6e3b48f30_Class24 ( obj_d4622e35_4bd3_4ce4_b001_283ff1bef326 o )  ) ) ( type_466c2771_bc02_47da_9981_84a6e3b48f30_Class39 ( obj_d4622e35_4bd3_4ce4_b001_283ff1bef326 o )  ) )):named c28))
(assert (! (exists ((o Int)) (and (and ( type_466c2771_bc02_47da_9981_84a6e3b48f30_Class35 ( obj_d4622e35_4bd3_4ce4_b001_283ff1bef326 o )  )  ( type_466c2771_bc02_47da_9981_84a6e3b48f30_Class39 ( obj_d4622e35_4bd3_4ce4_b001_283ff1bef326 o )  ) ) ( type_466c2771_bc02_47da_9981_84a6e3b48f30_Class30 ( obj_d4622e35_4bd3_4ce4_b001_283ff1bef326 o )  ) )):named c29))
(assert (! (exists ((o Int)) ( type_466c2771_bc02_47da_9981_84a6e3b48f30_Class36 ( obj_d4622e35_4bd3_4ce4_b001_283ff1bef326 o )  ) ):named c30))
(assert (! (exists ((o Int)) ( type_466c2771_bc02_47da_9981_84a6e3b48f30_Class37 ( obj_d4622e35_4bd3_4ce4_b001_283ff1bef326 o )  ) ):named c31))
(assert (! (exists ((o Int)) ( type_466c2771_bc02_47da_9981_84a6e3b48f30_Class38 ( obj_d4622e35_4bd3_4ce4_b001_283ff1bef326 o )  ) ):named c32))
(assert (! (exists ((o Int)) ( type_466c2771_bc02_47da_9981_84a6e3b48f30_Class39 ( obj_d4622e35_4bd3_4ce4_b001_283ff1bef326 o )  ) ):named c33))
(assert (! (exists ((o Int)) ( type_466c2771_bc02_47da_9981_84a6e3b48f30_Class4 ( obj_d4622e35_4bd3_4ce4_b001_283ff1bef326 o )  ) ):named c34))
(assert (! (exists ((o Int)) (and (and (and (and (and (and (and (and (and ( type_466c2771_bc02_47da_9981_84a6e3b48f30_Class40 ( obj_d4622e35_4bd3_4ce4_b001_283ff1bef326 o )  )  ( type_466c2771_bc02_47da_9981_84a6e3b48f30_Class45 ( obj_d4622e35_4bd3_4ce4_b001_283ff1bef326 o )  ) ) ( type_466c2771_bc02_47da_9981_84a6e3b48f30_Class12 ( obj_d4622e35_4bd3_4ce4_b001_283ff1bef326 o )  ) ) ( type_466c2771_bc02_47da_9981_84a6e3b48f30_Class55 ( obj_d4622e35_4bd3_4ce4_b001_283ff1bef326 o )  ) ) ( type_466c2771_bc02_47da_9981_84a6e3b48f30_Class33 ( obj_d4622e35_4bd3_4ce4_b001_283ff1bef326 o )  ) ) ( type_466c2771_bc02_47da_9981_84a6e3b48f30_Class22 ( obj_d4622e35_4bd3_4ce4_b001_283ff1bef326 o )  ) ) ( type_466c2771_bc02_47da_9981_84a6e3b48f30_Class29 ( obj_d4622e35_4bd3_4ce4_b001_283ff1bef326 o )  ) ) ( type_466c2771_bc02_47da_9981_84a6e3b48f30_Class39 ( obj_d4622e35_4bd3_4ce4_b001_283ff1bef326 o )  ) ) ( type_466c2771_bc02_47da_9981_84a6e3b48f30_Class50 ( obj_d4622e35_4bd3_4ce4_b001_283ff1bef326 o )  ) ) ( type_466c2771_bc02_47da_9981_84a6e3b48f30_Class41 ( obj_d4622e35_4bd3_4ce4_b001_283ff1bef326 o )  ) )):named c35))
(assert (! (exists ((o Int)) (and (and (and (and (and ( type_466c2771_bc02_47da_9981_84a6e3b48f30_Class41 ( obj_d4622e35_4bd3_4ce4_b001_283ff1bef326 o )  )  ( type_466c2771_bc02_47da_9981_84a6e3b48f30_Class45 ( obj_d4622e35_4bd3_4ce4_b001_283ff1bef326 o )  ) ) ( type_466c2771_bc02_47da_9981_84a6e3b48f30_Class12 ( obj_d4622e35_4bd3_4ce4_b001_283ff1bef326 o )  ) ) ( type_466c2771_bc02_47da_9981_84a6e3b48f30_Class33 ( obj_d4622e35_4bd3_4ce4_b001_283ff1bef326 o )  ) ) ( type_466c2771_bc02_47da_9981_84a6e3b48f30_Class22 ( obj_d4622e35_4bd3_4ce4_b001_283ff1bef326 o )  ) ) ( type_466c2771_bc02_47da_9981_84a6e3b48f30_Class39 ( obj_d4622e35_4bd3_4ce4_b001_283ff1bef326 o )  ) )):named c36))
(assert (! (exists ((o Int)) (and ( type_466c2771_bc02_47da_9981_84a6e3b48f30_Class42 ( obj_d4622e35_4bd3_4ce4_b001_283ff1bef326 o )  )  ( type_466c2771_bc02_47da_9981_84a6e3b48f30_Class39 ( obj_d4622e35_4bd3_4ce4_b001_283ff1bef326 o )  ) )):named c37))
(assert (! (exists ((o Int)) ( type_466c2771_bc02_47da_9981_84a6e3b48f30_Class43 ( obj_d4622e35_4bd3_4ce4_b001_283ff1bef326 o )  ) ):named c38))
(assert (! (exists ((o Int)) (and (and (and (and (and (and (and ( type_466c2771_bc02_47da_9981_84a6e3b48f30_Class44 ( obj_d4622e35_4bd3_4ce4_b001_283ff1bef326 o )  )  ( type_466c2771_bc02_47da_9981_84a6e3b48f30_Class45 ( obj_d4622e35_4bd3_4ce4_b001_283ff1bef326 o )  ) ) ( type_466c2771_bc02_47da_9981_84a6e3b48f30_Class12 ( obj_d4622e35_4bd3_4ce4_b001_283ff1bef326 o )  ) ) ( type_466c2771_bc02_47da_9981_84a6e3b48f30_Class33 ( obj_d4622e35_4bd3_4ce4_b001_283ff1bef326 o )  ) ) ( type_466c2771_bc02_47da_9981_84a6e3b48f30_Class22 ( obj_d4622e35_4bd3_4ce4_b001_283ff1bef326 o )  ) ) ( type_466c2771_bc02_47da_9981_84a6e3b48f30_Class29 ( obj_d4622e35_4bd3_4ce4_b001_283ff1bef326 o )  ) ) ( type_466c2771_bc02_47da_9981_84a6e3b48f30_Class39 ( obj_d4622e35_4bd3_4ce4_b001_283ff1bef326 o )  ) ) ( type_466c2771_bc02_47da_9981_84a6e3b48f30_Class41 ( obj_d4622e35_4bd3_4ce4_b001_283ff1bef326 o )  ) )):named c39))
(assert (! (exists ((o Int)) (and (and (and (and ( type_466c2771_bc02_47da_9981_84a6e3b48f30_Class45 ( obj_d4622e35_4bd3_4ce4_b001_283ff1bef326 o )  )  ( type_466c2771_bc02_47da_9981_84a6e3b48f30_Class12 ( obj_d4622e35_4bd3_4ce4_b001_283ff1bef326 o )  ) ) ( type_466c2771_bc02_47da_9981_84a6e3b48f30_Class33 ( obj_d4622e35_4bd3_4ce4_b001_283ff1bef326 o )  ) ) ( type_466c2771_bc02_47da_9981_84a6e3b48f30_Class22 ( obj_d4622e35_4bd3_4ce4_b001_283ff1bef326 o )  ) ) ( type_466c2771_bc02_47da_9981_84a6e3b48f30_Class39 ( obj_d4622e35_4bd3_4ce4_b001_283ff1bef326 o )  ) )):named c40))
(assert (! (exists ((o Int)) (and (and ( type_466c2771_bc02_47da_9981_84a6e3b48f30_Class46 ( obj_d4622e35_4bd3_4ce4_b001_283ff1bef326 o )  )  ( type_466c2771_bc02_47da_9981_84a6e3b48f30_Class39 ( obj_d4622e35_4bd3_4ce4_b001_283ff1bef326 o )  ) ) ( type_466c2771_bc02_47da_9981_84a6e3b48f30_Class5 ( obj_d4622e35_4bd3_4ce4_b001_283ff1bef326 o )  ) )):named c41))
(assert (! (exists ((o Int)) ( type_466c2771_bc02_47da_9981_84a6e3b48f30_Class47 ( obj_d4622e35_4bd3_4ce4_b001_283ff1bef326 o )  ) ):named c42))
(assert (! (exists ((o Int)) (and (and (and (and (and (and (and (and (and ( type_466c2771_bc02_47da_9981_84a6e3b48f30_Class48 ( obj_d4622e35_4bd3_4ce4_b001_283ff1bef326 o )  )  ( type_466c2771_bc02_47da_9981_84a6e3b48f30_Class45 ( obj_d4622e35_4bd3_4ce4_b001_283ff1bef326 o )  ) ) ( type_466c2771_bc02_47da_9981_84a6e3b48f30_Class12 ( obj_d4622e35_4bd3_4ce4_b001_283ff1bef326 o )  ) ) ( type_466c2771_bc02_47da_9981_84a6e3b48f30_Class55 ( obj_d4622e35_4bd3_4ce4_b001_283ff1bef326 o )  ) ) ( type_466c2771_bc02_47da_9981_84a6e3b48f30_Class33 ( obj_d4622e35_4bd3_4ce4_b001_283ff1bef326 o )  ) ) ( type_466c2771_bc02_47da_9981_84a6e3b48f30_Class22 ( obj_d4622e35_4bd3_4ce4_b001_283ff1bef326 o )  ) ) ( type_466c2771_bc02_47da_9981_84a6e3b48f30_Class29 ( obj_d4622e35_4bd3_4ce4_b001_283ff1bef326 o )  ) ) ( type_466c2771_bc02_47da_9981_84a6e3b48f30_Class39 ( obj_d4622e35_4bd3_4ce4_b001_283ff1bef326 o )  ) ) ( type_466c2771_bc02_47da_9981_84a6e3b48f30_Class50 ( obj_d4622e35_4bd3_4ce4_b001_283ff1bef326 o )  ) ) ( type_466c2771_bc02_47da_9981_84a6e3b48f30_Class41 ( obj_d4622e35_4bd3_4ce4_b001_283ff1bef326 o )  ) )):named c43))
(assert (! (exists ((o Int)) (and (and (and (and (and (and (and (and (and ( type_466c2771_bc02_47da_9981_84a6e3b48f30_Class49 ( obj_d4622e35_4bd3_4ce4_b001_283ff1bef326 o )  )  ( type_466c2771_bc02_47da_9981_84a6e3b48f30_Class45 ( obj_d4622e35_4bd3_4ce4_b001_283ff1bef326 o )  ) ) ( type_466c2771_bc02_47da_9981_84a6e3b48f30_Class12 ( obj_d4622e35_4bd3_4ce4_b001_283ff1bef326 o )  ) ) ( type_466c2771_bc02_47da_9981_84a6e3b48f30_Class55 ( obj_d4622e35_4bd3_4ce4_b001_283ff1bef326 o )  ) ) ( type_466c2771_bc02_47da_9981_84a6e3b48f30_Class33 ( obj_d4622e35_4bd3_4ce4_b001_283ff1bef326 o )  ) ) ( type_466c2771_bc02_47da_9981_84a6e3b48f30_Class22 ( obj_d4622e35_4bd3_4ce4_b001_283ff1bef326 o )  ) ) ( type_466c2771_bc02_47da_9981_84a6e3b48f30_Class29 ( obj_d4622e35_4bd3_4ce4_b001_283ff1bef326 o )  ) ) ( type_466c2771_bc02_47da_9981_84a6e3b48f30_Class39 ( obj_d4622e35_4bd3_4ce4_b001_283ff1bef326 o )  ) ) ( type_466c2771_bc02_47da_9981_84a6e3b48f30_Class50 ( obj_d4622e35_4bd3_4ce4_b001_283ff1bef326 o )  ) ) ( type_466c2771_bc02_47da_9981_84a6e3b48f30_Class41 ( obj_d4622e35_4bd3_4ce4_b001_283ff1bef326 o )  ) )):named c44))
(assert (! (exists ((o Int)) (and ( type_466c2771_bc02_47da_9981_84a6e3b48f30_Class5 ( obj_d4622e35_4bd3_4ce4_b001_283ff1bef326 o )  )  ( type_466c2771_bc02_47da_9981_84a6e3b48f30_Class39 ( obj_d4622e35_4bd3_4ce4_b001_283ff1bef326 o )  ) )):named c45))
(assert (! (exists ((o Int)) (and (and (and (and (and (and (and (and ( type_466c2771_bc02_47da_9981_84a6e3b48f30_Class50 ( obj_d4622e35_4bd3_4ce4_b001_283ff1bef326 o )  )  ( type_466c2771_bc02_47da_9981_84a6e3b48f30_Class45 ( obj_d4622e35_4bd3_4ce4_b001_283ff1bef326 o )  ) ) ( type_466c2771_bc02_47da_9981_84a6e3b48f30_Class12 ( obj_d4622e35_4bd3_4ce4_b001_283ff1bef326 o )  ) ) ( type_466c2771_bc02_47da_9981_84a6e3b48f30_Class55 ( obj_d4622e35_4bd3_4ce4_b001_283ff1bef326 o )  ) ) ( type_466c2771_bc02_47da_9981_84a6e3b48f30_Class33 ( obj_d4622e35_4bd3_4ce4_b001_283ff1bef326 o )  ) ) ( type_466c2771_bc02_47da_9981_84a6e3b48f30_Class22 ( obj_d4622e35_4bd3_4ce4_b001_283ff1bef326 o )  ) ) ( type_466c2771_bc02_47da_9981_84a6e3b48f30_Class29 ( obj_d4622e35_4bd3_4ce4_b001_283ff1bef326 o )  ) ) ( type_466c2771_bc02_47da_9981_84a6e3b48f30_Class39 ( obj_d4622e35_4bd3_4ce4_b001_283ff1bef326 o )  ) ) ( type_466c2771_bc02_47da_9981_84a6e3b48f30_Class41 ( obj_d4622e35_4bd3_4ce4_b001_283ff1bef326 o )  ) )):named c46))
(assert (! (exists ((o Int)) (and (and (and (and (and (and ( type_466c2771_bc02_47da_9981_84a6e3b48f30_Class51 ( obj_d4622e35_4bd3_4ce4_b001_283ff1bef326 o )  )  ( type_466c2771_bc02_47da_9981_84a6e3b48f30_Class45 ( obj_d4622e35_4bd3_4ce4_b001_283ff1bef326 o )  ) ) ( type_466c2771_bc02_47da_9981_84a6e3b48f30_Class12 ( obj_d4622e35_4bd3_4ce4_b001_283ff1bef326 o )  ) ) ( type_466c2771_bc02_47da_9981_84a6e3b48f30_Class33 ( obj_d4622e35_4bd3_4ce4_b001_283ff1bef326 o )  ) ) ( type_466c2771_bc02_47da_9981_84a6e3b48f30_Class22 ( obj_d4622e35_4bd3_4ce4_b001_283ff1bef326 o )  ) ) ( type_466c2771_bc02_47da_9981_84a6e3b48f30_Class16 ( obj_d4622e35_4bd3_4ce4_b001_283ff1bef326 o )  ) ) ( type_466c2771_bc02_47da_9981_84a6e3b48f30_Class39 ( obj_d4622e35_4bd3_4ce4_b001_283ff1bef326 o )  ) )):named c47))
(assert (! (exists ((o Int)) (and (and (and (and (and ( type_466c2771_bc02_47da_9981_84a6e3b48f30_Class52 ( obj_d4622e35_4bd3_4ce4_b001_283ff1bef326 o )  )  ( type_466c2771_bc02_47da_9981_84a6e3b48f30_Class45 ( obj_d4622e35_4bd3_4ce4_b001_283ff1bef326 o )  ) ) ( type_466c2771_bc02_47da_9981_84a6e3b48f30_Class12 ( obj_d4622e35_4bd3_4ce4_b001_283ff1bef326 o )  ) ) ( type_466c2771_bc02_47da_9981_84a6e3b48f30_Class33 ( obj_d4622e35_4bd3_4ce4_b001_283ff1bef326 o )  ) ) ( type_466c2771_bc02_47da_9981_84a6e3b48f30_Class22 ( obj_d4622e35_4bd3_4ce4_b001_283ff1bef326 o )  ) ) ( type_466c2771_bc02_47da_9981_84a6e3b48f30_Class39 ( obj_d4622e35_4bd3_4ce4_b001_283ff1bef326 o )  ) )):named c48))
(assert (! (exists ((o Int)) ( type_466c2771_bc02_47da_9981_84a6e3b48f30_Class53 ( obj_d4622e35_4bd3_4ce4_b001_283ff1bef326 o )  ) ):named c49))
(assert (! (exists ((o Int)) ( type_466c2771_bc02_47da_9981_84a6e3b48f30_Class54 ( obj_d4622e35_4bd3_4ce4_b001_283ff1bef326 o )  ) ):named c50))
(assert (! (exists ((o Int)) (and (and (and (and (and (and (and ( type_466c2771_bc02_47da_9981_84a6e3b48f30_Class55 ( obj_d4622e35_4bd3_4ce4_b001_283ff1bef326 o )  )  ( type_466c2771_bc02_47da_9981_84a6e3b48f30_Class45 ( obj_d4622e35_4bd3_4ce4_b001_283ff1bef326 o )  ) ) ( type_466c2771_bc02_47da_9981_84a6e3b48f30_Class12 ( obj_d4622e35_4bd3_4ce4_b001_283ff1bef326 o )  ) ) ( type_466c2771_bc02_47da_9981_84a6e3b48f30_Class33 ( obj_d4622e35_4bd3_4ce4_b001_283ff1bef326 o )  ) ) ( type_466c2771_bc02_47da_9981_84a6e3b48f30_Class22 ( obj_d4622e35_4bd3_4ce4_b001_283ff1bef326 o )  ) ) ( type_466c2771_bc02_47da_9981_84a6e3b48f30_Class29 ( obj_d4622e35_4bd3_4ce4_b001_283ff1bef326 o )  ) ) ( type_466c2771_bc02_47da_9981_84a6e3b48f30_Class39 ( obj_d4622e35_4bd3_4ce4_b001_283ff1bef326 o )  ) ) ( type_466c2771_bc02_47da_9981_84a6e3b48f30_Class41 ( obj_d4622e35_4bd3_4ce4_b001_283ff1bef326 o )  ) )):named c51))
(assert (! (exists ((o Int)) ( type_466c2771_bc02_47da_9981_84a6e3b48f30_Class6 ( obj_d4622e35_4bd3_4ce4_b001_283ff1bef326 o )  ) ):named c52))
(assert (! (exists ((o Int)) (and (and (and (and (and (and (and (and (and ( type_466c2771_bc02_47da_9981_84a6e3b48f30_Class7 ( obj_d4622e35_4bd3_4ce4_b001_283ff1bef326 o )  )  ( type_466c2771_bc02_47da_9981_84a6e3b48f30_Class45 ( obj_d4622e35_4bd3_4ce4_b001_283ff1bef326 o )  ) ) ( type_466c2771_bc02_47da_9981_84a6e3b48f30_Class12 ( obj_d4622e35_4bd3_4ce4_b001_283ff1bef326 o )  ) ) ( type_466c2771_bc02_47da_9981_84a6e3b48f30_Class55 ( obj_d4622e35_4bd3_4ce4_b001_283ff1bef326 o )  ) ) ( type_466c2771_bc02_47da_9981_84a6e3b48f30_Class33 ( obj_d4622e35_4bd3_4ce4_b001_283ff1bef326 o )  ) ) ( type_466c2771_bc02_47da_9981_84a6e3b48f30_Class22 ( obj_d4622e35_4bd3_4ce4_b001_283ff1bef326 o )  ) ) ( type_466c2771_bc02_47da_9981_84a6e3b48f30_Class29 ( obj_d4622e35_4bd3_4ce4_b001_283ff1bef326 o )  ) ) ( type_466c2771_bc02_47da_9981_84a6e3b48f30_Class39 ( obj_d4622e35_4bd3_4ce4_b001_283ff1bef326 o )  ) ) ( type_466c2771_bc02_47da_9981_84a6e3b48f30_Class50 ( obj_d4622e35_4bd3_4ce4_b001_283ff1bef326 o )  ) ) ( type_466c2771_bc02_47da_9981_84a6e3b48f30_Class41 ( obj_d4622e35_4bd3_4ce4_b001_283ff1bef326 o )  ) )):named c53))
(assert (! (exists ((o Int)) (and ( type_466c2771_bc02_47da_9981_84a6e3b48f30_Class8 ( obj_d4622e35_4bd3_4ce4_b001_283ff1bef326 o )  )  ( type_466c2771_bc02_47da_9981_84a6e3b48f30_Class39 ( obj_d4622e35_4bd3_4ce4_b001_283ff1bef326 o )  ) )):named c54))
(assert (! (exists ((o Int)) ( type_466c2771_bc02_47da_9981_84a6e3b48f30_Class9 ( obj_d4622e35_4bd3_4ce4_b001_283ff1bef326 o )  ) ):named c55))

 ;end of formula 